p cnf 282 2693
1 2 3 4 5 6 0
7 8 9 10 11 12 0
13 14 15 16 17 18 0
19 20 21 22 23 24 0
25 26 27 28 29 30 0
31 32 33 34 35 36 0
37 38 39 40 41 42 0
43 44 45 46 47 48 0
49 50 51 52 53 54 0
55 56 57 58 59 60 0
61 62 63 64 65 66 0
67 68 69 70 71 72 0
73 74 75 76 77 78 0
79 80 81 82 83 84 0
85 86 87 88 89 90 0
91 92 93 94 95 96 0
97 98 99 100 101 102 0
103 104 105 106 107 108 0
109 110 111 112 113 114 0
115 116 117 118 119 120 0
121 122 123 124 125 126 0
127 128 129 130 131 132 0
133 134 135 136 137 138 0
139 140 141 142 143 144 0
145 146 147 148 149 150 0
151 152 153 154 155 156 0
157 158 159 160 161 162 0
163 164 165 166 167 168 0
169 170 171 172 173 174 0
175 176 177 178 179 180 0
181 182 183 184 185 186 0
187 188 189 190 191 192 0
193 194 195 196 197 198 0
199 200 201 202 203 204 0
205 206 207 208 209 210 0
211 212 213 214 215 216 0
217 218 219 220 221 222 0
223 224 225 226 227 228 0
229 230 231 232 233 234 0
235 236 237 238 239 240 0
241 242 243 244 245 246 0
247 248 249 250 251 252 0
253 254 255 256 257 258 0
259 260 261 262 263 264 0
265 266 267 268 269 270 0
271 272 273 274 275 276 0
277 278 279 280 281 282 0
-1 -7 0
-2 -8 0
-3 -9 0
-4 -10 0
-5 -11 0
-6 -12 0
-13 -7 0
-14 -8 0
-15 -9 0
-16 -10 0
-17 -11 0
-18 -12 0
-1 -19 0
-2 -20 0
-3 -21 0
-4 -22 0
-5 -23 0
-6 -24 0
-13 -25 0
-14 -26 0
-15 -27 0
-16 -28 0
-17 -29 0
-18 -30 0
-19 -25 0
-20 -26 0
-21 -27 0
-22 -28 0
-23 -29 0
-24 -30 0
-31 -7 0
-32 -8 0
-33 -9 0
-34 -10 0
-35 -11 0
-36 -12 0
-1 -37 0
-2 -38 0
-3 -39 0
-4 -40 0
-5 -41 0
-6 -42 0
-43 -7 0
-44 -8 0
-45 -9 0
-46 -10 0
-47 -11 0
-48 -12 0
-13 -37 0
-14 -38 0
-15 -39 0
-16 -40 0
-17 -41 0
-18 -42 0
-31 -19 0
-32 -20 0
-33 -21 0
-34 -22 0
-35 -23 0
-36 -24 0
-1 -49 0
-2 -50 0
-3 -51 0
-4 -52 0
-5 -53 0
-6 -54 0
-43 -25 0
-44 -26 0
-45 -27 0
-46 -28 0
-47 -29 0
-48 -30 0
-13 -55 0
-14 -56 0
-15 -57 0
-16 -58 0
-17 -59 0
-18 -60 0
-49 -25 0
-50 -26 0
-51 -27 0
-52 -28 0
-53 -29 0
-54 -30 0
-19 -55 0
-20 -56 0
-21 -57 0
-22 -58 0
-23 -59 0
-24 -60 0
-31 -61 0
-32 -62 0
-33 -63 0
-34 -64 0
-35 -65 0
-36 -66 0
-37 -61 0
-38 -62 0
-39 -63 0
-40 -64 0
-41 -65 0
-42 -66 0
-43 -61 0
-44 -62 0
-45 -63 0
-46 -64 0
-47 -65 0
-48 -66 0
-49 -61 0
-50 -62 0
-51 -63 0
-52 -64 0
-53 -65 0
-54 -66 0
-55 -61 0
-56 -62 0
-57 -63 0
-58 -64 0
-59 -65 0
-60 -66 0
-67 -7 0
-68 -8 0
-69 -9 0
-70 -10 0
-71 -11 0
-72 -12 0
-1 -73 0
-2 -74 0
-3 -75 0
-4 -76 0
-5 -77 0
-6 -78 0
-79 -7 0
-80 -8 0
-81 -9 0
-82 -10 0
-83 -11 0
-84 -12 0
-13 -73 0
-14 -74 0
-15 -75 0
-16 -76 0
-17 -77 0
-18 -78 0
-67 -19 0
-68 -20 0
-69 -21 0
-70 -22 0
-71 -23 0
-72 -24 0
-1 -85 0
-2 -86 0
-3 -87 0
-4 -88 0
-5 -89 0
-6 -90 0
-79 -25 0
-80 -26 0
-81 -27 0
-82 -28 0
-83 -29 0
-84 -30 0
-13 -91 0
-14 -92 0
-15 -93 0
-16 -94 0
-17 -95 0
-18 -96 0
-85 -25 0
-86 -26 0
-87 -27 0
-88 -28 0
-89 -29 0
-90 -30 0
-19 -91 0
-20 -92 0
-21 -93 0
-22 -94 0
-23 -95 0
-24 -96 0
-97 -7 0
-98 -8 0
-99 -9 0
-100 -10 0
-101 -11 0
-102 -12 0
-31 -73 0
-32 -74 0
-33 -75 0
-34 -76 0
-35 -77 0
-36 -78 0
-67 -37 0
-68 -38 0
-69 -39 0
-70 -40 0
-71 -41 0
-72 -42 0
-1 -103 0
-2 -104 0
-3 -105 0
-4 -106 0
-5 -107 0
-6 -108 0
-109 -7 0
-110 -8 0
-111 -9 0
-112 -10 0
-113 -11 0
-114 -12 0
-43 -73 0
-44 -74 0
-45 -75 0
-46 -76 0
-47 -77 0
-48 -78 0
-79 -37 0
-80 -38 0
-81 -39 0
-82 -40 0
-83 -41 0
-84 -42 0
-13 -103 0
-14 -104 0
-15 -105 0
-16 -106 0
-17 -107 0
-18 -108 0
-97 -19 0
-98 -20 0
-99 -21 0
-100 -22 0
-101 -23 0
-102 -24 0
-31 -85 0
-32 -86 0
-33 -87 0
-34 -88 0
-35 -89 0
-36 -90 0
-67 -49 0
-68 -50 0
-69 -51 0
-70 -52 0
-71 -53 0
-72 -54 0
-1 -115 0
-2 -116 0
-3 -117 0
-4 -118 0
-5 -119 0
-6 -120 0
-109 -25 0
-110 -26 0
-111 -27 0
-112 -28 0
-113 -29 0
-114 -30 0
-43 -91 0
-44 -92 0
-45 -93 0
-46 -94 0
-47 -95 0
-48 -96 0
-79 -55 0
-80 -56 0
-81 -57 0
-82 -58 0
-83 -59 0
-84 -60 0
-13 -121 0
-14 -122 0
-15 -123 0
-16 -124 0
-17 -125 0
-18 -126 0
-115 -25 0
-116 -26 0
-117 -27 0
-118 -28 0
-119 -29 0
-120 -30 0
-49 -91 0
-50 -92 0
-51 -93 0
-52 -94 0
-53 -95 0
-54 -96 0
-85 -55 0
-86 -56 0
-87 -57 0
-88 -58 0
-89 -59 0
-90 -60 0
-19 -121 0
-20 -122 0
-21 -123 0
-22 -124 0
-23 -125 0
-24 -126 0
-97 -61 0
-98 -62 0
-99 -63 0
-100 -64 0
-101 -65 0
-102 -66 0
-31 -127 0
-32 -128 0
-33 -129 0
-34 -130 0
-35 -131 0
-36 -132 0
-103 -61 0
-104 -62 0
-105 -63 0
-106 -64 0
-107 -65 0
-108 -66 0
-37 -127 0
-38 -128 0
-39 -129 0
-40 -130 0
-41 -131 0
-42 -132 0
-109 -61 0
-110 -62 0
-111 -63 0
-112 -64 0
-113 -65 0
-114 -66 0
-43 -127 0
-44 -128 0
-45 -129 0
-46 -130 0
-47 -131 0
-48 -132 0
-115 -61 0
-116 -62 0
-117 -63 0
-118 -64 0
-119 -65 0
-120 -66 0
-49 -127 0
-50 -128 0
-51 -129 0
-52 -130 0
-53 -131 0
-54 -132 0
-121 -61 0
-122 -62 0
-123 -63 0
-124 -64 0
-125 -65 0
-126 -66 0
-55 -127 0
-56 -128 0
-57 -129 0
-58 -130 0
-59 -131 0
-60 -132 0
-67 -133 0
-68 -134 0
-69 -135 0
-70 -136 0
-71 -137 0
-72 -138 0
-73 -133 0
-74 -134 0
-75 -135 0
-76 -136 0
-77 -137 0
-78 -138 0
-79 -133 0
-80 -134 0
-81 -135 0
-82 -136 0
-83 -137 0
-84 -138 0
-85 -133 0
-86 -134 0
-87 -135 0
-88 -136 0
-89 -137 0
-90 -138 0
-91 -133 0
-92 -134 0
-93 -135 0
-94 -136 0
-95 -137 0
-96 -138 0
-97 -133 0
-98 -134 0
-99 -135 0
-100 -136 0
-101 -137 0
-102 -138 0
-103 -133 0
-104 -134 0
-105 -135 0
-106 -136 0
-107 -137 0
-108 -138 0
-109 -133 0
-110 -134 0
-111 -135 0
-112 -136 0
-113 -137 0
-114 -138 0
-115 -133 0
-116 -134 0
-117 -135 0
-118 -136 0
-119 -137 0
-120 -138 0
-121 -133 0
-122 -134 0
-123 -135 0
-124 -136 0
-125 -137 0
-126 -138 0
-127 -133 0
-128 -134 0
-129 -135 0
-130 -136 0
-131 -137 0
-132 -138 0
-139 -7 0
-140 -8 0
-141 -9 0
-142 -10 0
-143 -11 0
-144 -12 0
-1 -145 0
-2 -146 0
-3 -147 0
-4 -148 0
-5 -149 0
-6 -150 0
-151 -7 0
-152 -8 0
-153 -9 0
-154 -10 0
-155 -11 0
-156 -12 0
-13 -145 0
-14 -146 0
-15 -147 0
-16 -148 0
-17 -149 0
-18 -150 0
-139 -19 0
-140 -20 0
-141 -21 0
-142 -22 0
-143 -23 0
-144 -24 0
-1 -157 0
-2 -158 0
-3 -159 0
-4 -160 0
-5 -161 0
-6 -162 0
-151 -25 0
-152 -26 0
-153 -27 0
-154 -28 0
-155 -29 0
-156 -30 0
-13 -163 0
-14 -164 0
-15 -165 0
-16 -166 0
-17 -167 0
-18 -168 0
-157 -25 0
-158 -26 0
-159 -27 0
-160 -28 0
-161 -29 0
-162 -30 0
-19 -163 0
-20 -164 0
-21 -165 0
-22 -166 0
-23 -167 0
-24 -168 0
-169 -7 0
-170 -8 0
-171 -9 0
-172 -10 0
-173 -11 0
-174 -12 0
-31 -145 0
-32 -146 0
-33 -147 0
-34 -148 0
-35 -149 0
-36 -150 0
-139 -37 0
-140 -38 0
-141 -39 0
-142 -40 0
-143 -41 0
-144 -42 0
-1 -175 0
-2 -176 0
-3 -177 0
-4 -178 0
-5 -179 0
-6 -180 0
-181 -7 0
-182 -8 0
-183 -9 0
-184 -10 0
-185 -11 0
-186 -12 0
-43 -145 0
-44 -146 0
-45 -147 0
-46 -148 0
-47 -149 0
-48 -150 0
-151 -37 0
-152 -38 0
-153 -39 0
-154 -40 0
-155 -41 0
-156 -42 0
-13 -175 0
-14 -176 0
-15 -177 0
-16 -178 0
-17 -179 0
-18 -180 0
-169 -19 0
-170 -20 0
-171 -21 0
-172 -22 0
-173 -23 0
-174 -24 0
-31 -157 0
-32 -158 0
-33 -159 0
-34 -160 0
-35 -161 0
-36 -162 0
-139 -49 0
-140 -50 0
-141 -51 0
-142 -52 0
-143 -53 0
-144 -54 0
-1 -187 0
-2 -188 0
-3 -189 0
-4 -190 0
-5 -191 0
-6 -192 0
-181 -25 0
-182 -26 0
-183 -27 0
-184 -28 0
-185 -29 0
-186 -30 0
-43 -163 0
-44 -164 0
-45 -165 0
-46 -166 0
-47 -167 0
-48 -168 0
-151 -55 0
-152 -56 0
-153 -57 0
-154 -58 0
-155 -59 0
-156 -60 0
-13 -193 0
-14 -194 0
-15 -195 0
-16 -196 0
-17 -197 0
-18 -198 0
-187 -25 0
-188 -26 0
-189 -27 0
-190 -28 0
-191 -29 0
-192 -30 0
-49 -163 0
-50 -164 0
-51 -165 0
-52 -166 0
-53 -167 0
-54 -168 0
-157 -55 0
-158 -56 0
-159 -57 0
-160 -58 0
-161 -59 0
-162 -60 0
-19 -193 0
-20 -194 0
-21 -195 0
-22 -196 0
-23 -197 0
-24 -198 0
-169 -61 0
-170 -62 0
-171 -63 0
-172 -64 0
-173 -65 0
-174 -66 0
-31 -199 0
-32 -200 0
-33 -201 0
-34 -202 0
-35 -203 0
-36 -204 0
-175 -61 0
-176 -62 0
-177 -63 0
-178 -64 0
-179 -65 0
-180 -66 0
-37 -199 0
-38 -200 0
-39 -201 0
-40 -202 0
-41 -203 0
-42 -204 0
-181 -61 0
-182 -62 0
-183 -63 0
-184 -64 0
-185 -65 0
-186 -66 0
-43 -199 0
-44 -200 0
-45 -201 0
-46 -202 0
-47 -203 0
-48 -204 0
-187 -61 0
-188 -62 0
-189 -63 0
-190 -64 0
-191 -65 0
-192 -66 0
-49 -199 0
-50 -200 0
-51 -201 0
-52 -202 0
-53 -203 0
-54 -204 0
-193 -61 0
-194 -62 0
-195 -63 0
-196 -64 0
-197 -65 0
-198 -66 0
-55 -199 0
-56 -200 0
-57 -201 0
-58 -202 0
-59 -203 0
-60 -204 0
-205 -7 0
-206 -8 0
-207 -9 0
-208 -10 0
-209 -11 0
-210 -12 0
-67 -145 0
-68 -146 0
-69 -147 0
-70 -148 0
-71 -149 0
-72 -150 0
-139 -73 0
-140 -74 0
-141 -75 0
-142 -76 0
-143 -77 0
-144 -78 0
-1 -211 0
-2 -212 0
-3 -213 0
-4 -214 0
-5 -215 0
-6 -216 0
-217 -7 0
-218 -8 0
-219 -9 0
-220 -10 0
-221 -11 0
-222 -12 0
-79 -145 0
-80 -146 0
-81 -147 0
-82 -148 0
-83 -149 0
-84 -150 0
-151 -73 0
-152 -74 0
-153 -75 0
-154 -76 0
-155 -77 0
-156 -78 0
-13 -211 0
-14 -212 0
-15 -213 0
-16 -214 0
-17 -215 0
-18 -216 0
-205 -19 0
-206 -20 0
-207 -21 0
-208 -22 0
-209 -23 0
-210 -24 0
-67 -157 0
-68 -158 0
-69 -159 0
-70 -160 0
-71 -161 0
-72 -162 0
-139 -85 0
-140 -86 0
-141 -87 0
-142 -88 0
-143 -89 0
-144 -90 0
-1 -223 0
-2 -224 0
-3 -225 0
-4 -226 0
-5 -227 0
-6 -228 0
-217 -25 0
-218 -26 0
-219 -27 0
-220 -28 0
-221 -29 0
-222 -30 0
-79 -163 0
-80 -164 0
-81 -165 0
-82 -166 0
-83 -167 0
-84 -168 0
-151 -91 0
-152 -92 0
-153 -93 0
-154 -94 0
-155 -95 0
-156 -96 0
-13 -229 0
-14 -230 0
-15 -231 0
-16 -232 0
-17 -233 0
-18 -234 0
-223 -25 0
-224 -26 0
-225 -27 0
-226 -28 0
-227 -29 0
-228 -30 0
-85 -163 0
-86 -164 0
-87 -165 0
-88 -166 0
-89 -167 0
-90 -168 0
-157 -91 0
-158 -92 0
-159 -93 0
-160 -94 0
-161 -95 0
-162 -96 0
-19 -229 0
-20 -230 0
-21 -231 0
-22 -232 0
-23 -233 0
-24 -234 0
-235 -7 0
-236 -8 0
-237 -9 0
-238 -10 0
-239 -11 0
-240 -12 0
-97 -145 0
-98 -146 0
-99 -147 0
-100 -148 0
-101 -149 0
-102 -150 0
-169 -73 0
-170 -74 0
-171 -75 0
-172 -76 0
-173 -77 0
-174 -78 0
-31 -211 0
-32 -212 0
-33 -213 0
-34 -214 0
-35 -215 0
-36 -216 0
-205 -37 0
-206 -38 0
-207 -39 0
-208 -40 0
-209 -41 0
-210 -42 0
-67 -175 0
-68 -176 0
-69 -177 0
-70 -178 0
-71 -179 0
-72 -180 0
-139 -103 0
-140 -104 0
-141 -105 0
-142 -106 0
-143 -107 0
-144 -108 0
-1 -241 0
-2 -242 0
-3 -243 0
-4 -244 0
-5 -245 0
-6 -246 0
-247 -7 0
-248 -8 0
-249 -9 0
-250 -10 0
-251 -11 0
-252 -12 0
-109 -145 0
-110 -146 0
-111 -147 0
-112 -148 0
-113 -149 0
-114 -150 0
-181 -73 0
-182 -74 0
-183 -75 0
-184 -76 0
-185 -77 0
-186 -78 0
-43 -211 0
-44 -212 0
-45 -213 0
-46 -214 0
-47 -215 0
-48 -216 0
-217 -37 0
-218 -38 0
-219 -39 0
-220 -40 0
-221 -41 0
-222 -42 0
-79 -175 0
-80 -176 0
-81 -177 0
-82 -178 0
-83 -179 0
-84 -180 0
-151 -103 0
-152 -104 0
-153 -105 0
-154 -106 0
-155 -107 0
-156 -108 0
-13 -241 0
-14 -242 0
-15 -243 0
-16 -244 0
-17 -245 0
-18 -246 0
-235 -19 0
-236 -20 0
-237 -21 0
-238 -22 0
-239 -23 0
-240 -24 0
-97 -157 0
-98 -158 0
-99 -159 0
-100 -160 0
-101 -161 0
-102 -162 0
-169 -85 0
-170 -86 0
-171 -87 0
-172 -88 0
-173 -89 0
-174 -90 0
-31 -223 0
-32 -224 0
-33 -225 0
-34 -226 0
-35 -227 0
-36 -228 0
-205 -49 0
-206 -50 0
-207 -51 0
-208 -52 0
-209 -53 0
-210 -54 0
-67 -187 0
-68 -188 0
-69 -189 0
-70 -190 0
-71 -191 0
-72 -192 0
-139 -115 0
-140 -116 0
-141 -117 0
-142 -118 0
-143 -119 0
-144 -120 0
-1 -253 0
-2 -254 0
-3 -255 0
-4 -256 0
-5 -257 0
-6 -258 0
-247 -25 0
-248 -26 0
-249 -27 0
-250 -28 0
-251 -29 0
-252 -30 0
-109 -163 0
-110 -164 0
-111 -165 0
-112 -166 0
-113 -167 0
-114 -168 0
-181 -91 0
-182 -92 0
-183 -93 0
-184 -94 0
-185 -95 0
-186 -96 0
-43 -229 0
-44 -230 0
-45 -231 0
-46 -232 0
-47 -233 0
-48 -234 0
-217 -55 0
-218 -56 0
-219 -57 0
-220 -58 0
-221 -59 0
-222 -60 0
-79 -193 0
-80 -194 0
-81 -195 0
-82 -196 0
-83 -197 0
-84 -198 0
-151 -121 0
-152 -122 0
-153 -123 0
-154 -124 0
-155 -125 0
-156 -126 0
-13 -259 0
-14 -260 0
-15 -261 0
-16 -262 0
-17 -263 0
-18 -264 0
-253 -25 0
-254 -26 0
-255 -27 0
-256 -28 0
-257 -29 0
-258 -30 0
-115 -163 0
-116 -164 0
-117 -165 0
-118 -166 0
-119 -167 0
-120 -168 0
-187 -91 0
-188 -92 0
-189 -93 0
-190 -94 0
-191 -95 0
-192 -96 0
-49 -229 0
-50 -230 0
-51 -231 0
-52 -232 0
-53 -233 0
-54 -234 0
-223 -55 0
-224 -56 0
-225 -57 0
-226 -58 0
-227 -59 0
-228 -60 0
-85 -193 0
-86 -194 0
-87 -195 0
-88 -196 0
-89 -197 0
-90 -198 0
-157 -121 0
-158 -122 0
-159 -123 0
-160 -124 0
-161 -125 0
-162 -126 0
-19 -259 0
-20 -260 0
-21 -261 0
-22 -262 0
-23 -263 0
-24 -264 0
-235 -61 0
-236 -62 0
-237 -63 0
-238 -64 0
-239 -65 0
-240 -66 0
-97 -199 0
-98 -200 0
-99 -201 0
-100 -202 0
-101 -203 0
-102 -204 0
-169 -127 0
-170 -128 0
-171 -129 0
-172 -130 0
-173 -131 0
-174 -132 0
-31 -265 0
-32 -266 0
-33 -267 0
-34 -268 0
-35 -269 0
-36 -270 0
-241 -61 0
-242 -62 0
-243 -63 0
-244 -64 0
-245 -65 0
-246 -66 0
-103 -199 0
-104 -200 0
-105 -201 0
-106 -202 0
-107 -203 0
-108 -204 0
-175 -127 0
-176 -128 0
-177 -129 0
-178 -130 0
-179 -131 0
-180 -132 0
-37 -265 0
-38 -266 0
-39 -267 0
-40 -268 0
-41 -269 0
-42 -270 0
-247 -61 0
-248 -62 0
-249 -63 0
-250 -64 0
-251 -65 0
-252 -66 0
-109 -199 0
-110 -200 0
-111 -201 0
-112 -202 0
-113 -203 0
-114 -204 0
-181 -127 0
-182 -128 0
-183 -129 0
-184 -130 0
-185 -131 0
-186 -132 0
-43 -265 0
-44 -266 0
-45 -267 0
-46 -268 0
-47 -269 0
-48 -270 0
-253 -61 0
-254 -62 0
-255 -63 0
-256 -64 0
-257 -65 0
-258 -66 0
-115 -199 0
-116 -200 0
-117 -201 0
-118 -202 0
-119 -203 0
-120 -204 0
-187 -127 0
-188 -128 0
-189 -129 0
-190 -130 0
-191 -131 0
-192 -132 0
-49 -265 0
-50 -266 0
-51 -267 0
-52 -268 0
-53 -269 0
-54 -270 0
-259 -61 0
-260 -62 0
-261 -63 0
-262 -64 0
-263 -65 0
-264 -66 0
-121 -199 0
-122 -200 0
-123 -201 0
-124 -202 0
-125 -203 0
-126 -204 0
-193 -127 0
-194 -128 0
-195 -129 0
-196 -130 0
-197 -131 0
-198 -132 0
-55 -265 0
-56 -266 0
-57 -267 0
-58 -268 0
-59 -269 0
-60 -270 0
-205 -133 0
-206 -134 0
-207 -135 0
-208 -136 0
-209 -137 0
-210 -138 0
-67 -271 0
-68 -272 0
-69 -273 0
-70 -274 0
-71 -275 0
-72 -276 0
-211 -133 0
-212 -134 0
-213 -135 0
-214 -136 0
-215 -137 0
-216 -138 0
-73 -271 0
-74 -272 0
-75 -273 0
-76 -274 0
-77 -275 0
-78 -276 0
-217 -133 0
-218 -134 0
-219 -135 0
-220 -136 0
-221 -137 0
-222 -138 0
-79 -271 0
-80 -272 0
-81 -273 0
-82 -274 0
-83 -275 0
-84 -276 0
-223 -133 0
-224 -134 0
-225 -135 0
-226 -136 0
-227 -137 0
-228 -138 0
-85 -271 0
-86 -272 0
-87 -273 0
-88 -274 0
-89 -275 0
-90 -276 0
-229 -133 0
-230 -134 0
-231 -135 0
-232 -136 0
-233 -137 0
-234 -138 0
-91 -271 0
-92 -272 0
-93 -273 0
-94 -274 0
-95 -275 0
-96 -276 0
-235 -133 0
-236 -134 0
-237 -135 0
-238 -136 0
-239 -137 0
-240 -138 0
-97 -271 0
-98 -272 0
-99 -273 0
-100 -274 0
-101 -275 0
-102 -276 0
-241 -133 0
-242 -134 0
-243 -135 0
-244 -136 0
-245 -137 0
-246 -138 0
-103 -271 0
-104 -272 0
-105 -273 0
-106 -274 0
-107 -275 0
-108 -276 0
-247 -133 0
-248 -134 0
-249 -135 0
-250 -136 0
-251 -137 0
-252 -138 0
-109 -271 0
-110 -272 0
-111 -273 0
-112 -274 0
-113 -275 0
-114 -276 0
-253 -133 0
-254 -134 0
-255 -135 0
-256 -136 0
-257 -137 0
-258 -138 0
-115 -271 0
-116 -272 0
-117 -273 0
-118 -274 0
-119 -275 0
-120 -276 0
-259 -133 0
-260 -134 0
-261 -135 0
-262 -136 0
-263 -137 0
-264 -138 0
-121 -271 0
-122 -272 0
-123 -273 0
-124 -274 0
-125 -275 0
-126 -276 0
-265 -133 0
-266 -134 0
-267 -135 0
-268 -136 0
-269 -137 0
-270 -138 0
-127 -271 0
-128 -272 0
-129 -273 0
-130 -274 0
-131 -275 0
-132 -276 0
-139 -277 0
-140 -278 0
-141 -279 0
-142 -280 0
-143 -281 0
-144 -282 0
-145 -277 0
-146 -278 0
-147 -279 0
-148 -280 0
-149 -281 0
-150 -282 0
-151 -277 0
-152 -278 0
-153 -279 0
-154 -280 0
-155 -281 0
-156 -282 0
-157 -277 0
-158 -278 0
-159 -279 0
-160 -280 0
-161 -281 0
-162 -282 0
-163 -277 0
-164 -278 0
-165 -279 0
-166 -280 0
-167 -281 0
-168 -282 0
-169 -277 0
-170 -278 0
-171 -279 0
-172 -280 0
-173 -281 0
-174 -282 0
-175 -277 0
-176 -278 0
-177 -279 0
-178 -280 0
-179 -281 0
-180 -282 0
-181 -277 0
-182 -278 0
-183 -279 0
-184 -280 0
-185 -281 0
-186 -282 0
-187 -277 0
-188 -278 0
-189 -279 0
-190 -280 0
-191 -281 0
-192 -282 0
-193 -277 0
-194 -278 0
-195 -279 0
-196 -280 0
-197 -281 0
-198 -282 0
-199 -277 0
-200 -278 0
-201 -279 0
-202 -280 0
-203 -281 0
-204 -282 0
-205 -277 0
-206 -278 0
-207 -279 0
-208 -280 0
-209 -281 0
-210 -282 0
-211 -277 0
-212 -278 0
-213 -279 0
-214 -280 0
-215 -281 0
-216 -282 0
-217 -277 0
-218 -278 0
-219 -279 0
-220 -280 0
-221 -281 0
-222 -282 0
-223 -277 0
-224 -278 0
-225 -279 0
-226 -280 0
-227 -281 0
-228 -282 0
-229 -277 0
-230 -278 0
-231 -279 0
-232 -280 0
-233 -281 0
-234 -282 0
-235 -277 0
-236 -278 0
-237 -279 0
-238 -280 0
-239 -281 0
-240 -282 0
-241 -277 0
-242 -278 0
-243 -279 0
-244 -280 0
-245 -281 0
-246 -282 0
-247 -277 0
-248 -278 0
-249 -279 0
-250 -280 0
-251 -281 0
-252 -282 0
-253 -277 0
-254 -278 0
-255 -279 0
-256 -280 0
-257 -281 0
-258 -282 0
-259 -277 0
-260 -278 0
-261 -279 0
-262 -280 0
-263 -281 0
-264 -282 0
-265 -277 0
-266 -278 0
-267 -279 0
-268 -280 0
-269 -281 0
-270 -282 0
-271 -277 0
-272 -278 0
-273 -279 0
-274 -280 0
-275 -281 0
-276 -282 0
-140 -1 277 0
-141 -1 277 0
-142 -1 277 0
-143 -1 277 0
-144 -1 277 0
-139 -2 278 0
-141 -2 278 0
-142 -2 278 0
-143 -2 278 0
-144 -2 278 0
-139 -3 279 0
-140 -3 279 0
-142 -3 279 0
-143 -3 279 0
-144 -3 279 0
-139 -4 280 0
-140 -4 280 0
-141 -4 280 0
-143 -4 280 0
-144 -4 280 0
-139 -5 281 0
-140 -5 281 0
-141 -5 281 0
-142 -5 281 0
-144 -5 281 0
-139 -6 282 0
-140 -6 282 0
-141 -6 282 0
-142 -6 282 0
-143 -6 282 0
-146 -7 277 0
-147 -7 277 0
-148 -7 277 0
-149 -7 277 0
-150 -7 277 0
-145 -8 278 0
-147 -8 278 0
-148 -8 278 0
-149 -8 278 0
-150 -8 278 0
-145 -9 279 0
-146 -9 279 0
-148 -9 279 0
-149 -9 279 0
-150 -9 279 0
-145 -10 280 0
-146 -10 280 0
-147 -10 280 0
-149 -10 280 0
-150 -10 280 0
-145 -11 281 0
-146 -11 281 0
-147 -11 281 0
-148 -11 281 0
-150 -11 281 0
-145 -12 282 0
-146 -12 282 0
-147 -12 282 0
-148 -12 282 0
-149 -12 282 0
-152 -13 277 0
-153 -13 277 0
-154 -13 277 0
-155 -13 277 0
-156 -13 277 0
-151 -14 278 0
-153 -14 278 0
-154 -14 278 0
-155 -14 278 0
-156 -14 278 0
-151 -15 279 0
-152 -15 279 0
-154 -15 279 0
-155 -15 279 0
-156 -15 279 0
-151 -16 280 0
-152 -16 280 0
-153 -16 280 0
-155 -16 280 0
-156 -16 280 0
-151 -17 281 0
-152 -17 281 0
-153 -17 281 0
-154 -17 281 0
-156 -17 281 0
-151 -18 282 0
-152 -18 282 0
-153 -18 282 0
-154 -18 282 0
-155 -18 282 0
-158 -19 277 0
-159 -19 277 0
-160 -19 277 0
-161 -19 277 0
-162 -19 277 0
-157 -20 278 0
-159 -20 278 0
-160 -20 278 0
-161 -20 278 0
-162 -20 278 0
-157 -21 279 0
-158 -21 279 0
-160 -21 279 0
-161 -21 279 0
-162 -21 279 0
-157 -22 280 0
-158 -22 280 0
-159 -22 280 0
-161 -22 280 0
-162 -22 280 0
-157 -23 281 0
-158 -23 281 0
-159 -23 281 0
-160 -23 281 0
-162 -23 281 0
-157 -24 282 0
-158 -24 282 0
-159 -24 282 0
-160 -24 282 0
-161 -24 282 0
-164 -25 277 0
-165 -25 277 0
-166 -25 277 0
-167 -25 277 0
-168 -25 277 0
-163 -26 278 0
-165 -26 278 0
-166 -26 278 0
-167 -26 278 0
-168 -26 278 0
-163 -27 279 0
-164 -27 279 0
-166 -27 279 0
-167 -27 279 0
-168 -27 279 0
-163 -28 280 0
-164 -28 280 0
-165 -28 280 0
-167 -28 280 0
-168 -28 280 0
-163 -29 281 0
-164 -29 281 0
-165 -29 281 0
-166 -29 281 0
-168 -29 281 0
-163 -30 282 0
-164 -30 282 0
-165 -30 282 0
-166 -30 282 0
-167 -30 282 0
-170 -31 277 0
-171 -31 277 0
-172 -31 277 0
-173 -31 277 0
-174 -31 277 0
-169 -32 278 0
-171 -32 278 0
-172 -32 278 0
-173 -32 278 0
-174 -32 278 0
-169 -33 279 0
-170 -33 279 0
-172 -33 279 0
-173 -33 279 0
-174 -33 279 0
-169 -34 280 0
-170 -34 280 0
-171 -34 280 0
-173 -34 280 0
-174 -34 280 0
-169 -35 281 0
-170 -35 281 0
-171 -35 281 0
-172 -35 281 0
-174 -35 281 0
-169 -36 282 0
-170 -36 282 0
-171 -36 282 0
-172 -36 282 0
-173 -36 282 0
-176 -37 277 0
-177 -37 277 0
-178 -37 277 0
-179 -37 277 0
-180 -37 277 0
-175 -38 278 0
-177 -38 278 0
-178 -38 278 0
-179 -38 278 0
-180 -38 278 0
-175 -39 279 0
-176 -39 279 0
-178 -39 279 0
-179 -39 279 0
-180 -39 279 0
-175 -40 280 0
-176 -40 280 0
-177 -40 280 0
-179 -40 280 0
-180 -40 280 0
-175 -41 281 0
-176 -41 281 0
-177 -41 281 0
-178 -41 281 0
-180 -41 281 0
-175 -42 282 0
-176 -42 282 0
-177 -42 282 0
-178 -42 282 0
-179 -42 282 0
-182 -43 277 0
-183 -43 277 0
-184 -43 277 0
-185 -43 277 0
-186 -43 277 0
-181 -44 278 0
-183 -44 278 0
-184 -44 278 0
-185 -44 278 0
-186 -44 278 0
-181 -45 279 0
-182 -45 279 0
-184 -45 279 0
-185 -45 279 0
-186 -45 279 0
-181 -46 280 0
-182 -46 280 0
-183 -46 280 0
-185 -46 280 0
-186 -46 280 0
-181 -47 281 0
-182 -47 281 0
-183 -47 281 0
-184 -47 281 0
-186 -47 281 0
-181 -48 282 0
-182 -48 282 0
-183 -48 282 0
-184 -48 282 0
-185 -48 282 0
-188 -49 277 0
-189 -49 277 0
-190 -49 277 0
-191 -49 277 0
-192 -49 277 0
-187 -50 278 0
-189 -50 278 0
-190 -50 278 0
-191 -50 278 0
-192 -50 278 0
-187 -51 279 0
-188 -51 279 0
-190 -51 279 0
-191 -51 279 0
-192 -51 279 0
-187 -52 280 0
-188 -52 280 0
-189 -52 280 0
-191 -52 280 0
-192 -52 280 0
-187 -53 281 0
-188 -53 281 0
-189 -53 281 0
-190 -53 281 0
-192 -53 281 0
-187 -54 282 0
-188 -54 282 0
-189 -54 282 0
-190 -54 282 0
-191 -54 282 0
-194 -55 277 0
-195 -55 277 0
-196 -55 277 0
-197 -55 277 0
-198 -55 277 0
-193 -56 278 0
-195 -56 278 0
-196 -56 278 0
-197 -56 278 0
-198 -56 278 0
-193 -57 279 0
-194 -57 279 0
-196 -57 279 0
-197 -57 279 0
-198 -57 279 0
-193 -58 280 0
-194 -58 280 0
-195 -58 280 0
-197 -58 280 0
-198 -58 280 0
-193 -59 281 0
-194 -59 281 0
-195 -59 281 0
-196 -59 281 0
-198 -59 281 0
-193 -60 282 0
-194 -60 282 0
-195 -60 282 0
-196 -60 282 0
-197 -60 282 0
-200 -61 277 0
-201 -61 277 0
-202 -61 277 0
-203 -61 277 0
-204 -61 277 0
-199 -62 278 0
-201 -62 278 0
-202 -62 278 0
-203 -62 278 0
-204 -62 278 0
-199 -63 279 0
-200 -63 279 0
-202 -63 279 0
-203 -63 279 0
-204 -63 279 0
-199 -64 280 0
-200 -64 280 0
-201 -64 280 0
-203 -64 280 0
-204 -64 280 0
-199 -65 281 0
-200 -65 281 0
-201 -65 281 0
-202 -65 281 0
-204 -65 281 0
-199 -66 282 0
-200 -66 282 0
-201 -66 282 0
-202 -66 282 0
-203 -66 282 0
-206 -67 277 0
-207 -67 277 0
-208 -67 277 0
-209 -67 277 0
-210 -67 277 0
-205 -68 278 0
-207 -68 278 0
-208 -68 278 0
-209 -68 278 0
-210 -68 278 0
-205 -69 279 0
-206 -69 279 0
-208 -69 279 0
-209 -69 279 0
-210 -69 279 0
-205 -70 280 0
-206 -70 280 0
-207 -70 280 0
-209 -70 280 0
-210 -70 280 0
-205 -71 281 0
-206 -71 281 0
-207 -71 281 0
-208 -71 281 0
-210 -71 281 0
-205 -72 282 0
-206 -72 282 0
-207 -72 282 0
-208 -72 282 0
-209 -72 282 0
-212 -73 277 0
-213 -73 277 0
-214 -73 277 0
-215 -73 277 0
-216 -73 277 0
-211 -74 278 0
-213 -74 278 0
-214 -74 278 0
-215 -74 278 0
-216 -74 278 0
-211 -75 279 0
-212 -75 279 0
-214 -75 279 0
-215 -75 279 0
-216 -75 279 0
-211 -76 280 0
-212 -76 280 0
-213 -76 280 0
-215 -76 280 0
-216 -76 280 0
-211 -77 281 0
-212 -77 281 0
-213 -77 281 0
-214 -77 281 0
-216 -77 281 0
-211 -78 282 0
-212 -78 282 0
-213 -78 282 0
-214 -78 282 0
-215 -78 282 0
-218 -79 277 0
-219 -79 277 0
-220 -79 277 0
-221 -79 277 0
-222 -79 277 0
-217 -80 278 0
-219 -80 278 0
-220 -80 278 0
-221 -80 278 0
-222 -80 278 0
-217 -81 279 0
-218 -81 279 0
-220 -81 279 0
-221 -81 279 0
-222 -81 279 0
-217 -82 280 0
-218 -82 280 0
-219 -82 280 0
-221 -82 280 0
-222 -82 280 0
-217 -83 281 0
-218 -83 281 0
-219 -83 281 0
-220 -83 281 0
-222 -83 281 0
-217 -84 282 0
-218 -84 282 0
-219 -84 282 0
-220 -84 282 0
-221 -84 282 0
-224 -85 277 0
-225 -85 277 0
-226 -85 277 0
-227 -85 277 0
-228 -85 277 0
-223 -86 278 0
-225 -86 278 0
-226 -86 278 0
-227 -86 278 0
-228 -86 278 0
-223 -87 279 0
-224 -87 279 0
-226 -87 279 0
-227 -87 279 0
-228 -87 279 0
-223 -88 280 0
-224 -88 280 0
-225 -88 280 0
-227 -88 280 0
-228 -88 280 0
-223 -89 281 0
-224 -89 281 0
-225 -89 281 0
-226 -89 281 0
-228 -89 281 0
-223 -90 282 0
-224 -90 282 0
-225 -90 282 0
-226 -90 282 0
-227 -90 282 0
-230 -91 277 0
-231 -91 277 0
-232 -91 277 0
-233 -91 277 0
-234 -91 277 0
-229 -92 278 0
-231 -92 278 0
-232 -92 278 0
-233 -92 278 0
-234 -92 278 0
-229 -93 279 0
-230 -93 279 0
-232 -93 279 0
-233 -93 279 0
-234 -93 279 0
-229 -94 280 0
-230 -94 280 0
-231 -94 280 0
-233 -94 280 0
-234 -94 280 0
-229 -95 281 0
-230 -95 281 0
-231 -95 281 0
-232 -95 281 0
-234 -95 281 0
-229 -96 282 0
-230 -96 282 0
-231 -96 282 0
-232 -96 282 0
-233 -96 282 0
-236 -97 277 0
-237 -97 277 0
-238 -97 277 0
-239 -97 277 0
-240 -97 277 0
-235 -98 278 0
-237 -98 278 0
-238 -98 278 0
-239 -98 278 0
-240 -98 278 0
-235 -99 279 0
-236 -99 279 0
-238 -99 279 0
-239 -99 279 0
-240 -99 279 0
-235 -100 280 0
-236 -100 280 0
-237 -100 280 0
-239 -100 280 0
-240 -100 280 0
-235 -101 281 0
-236 -101 281 0
-237 -101 281 0
-238 -101 281 0
-240 -101 281 0
-235 -102 282 0
-236 -102 282 0
-237 -102 282 0
-238 -102 282 0
-239 -102 282 0
-242 -103 277 0
-243 -103 277 0
-244 -103 277 0
-245 -103 277 0
-246 -103 277 0
-241 -104 278 0
-243 -104 278 0
-244 -104 278 0
-245 -104 278 0
-246 -104 278 0
-241 -105 279 0
-242 -105 279 0
-244 -105 279 0
-245 -105 279 0
-246 -105 279 0
-241 -106 280 0
-242 -106 280 0
-243 -106 280 0
-245 -106 280 0
-246 -106 280 0
-241 -107 281 0
-242 -107 281 0
-243 -107 281 0
-244 -107 281 0
-246 -107 281 0
-241 -108 282 0
-242 -108 282 0
-243 -108 282 0
-244 -108 282 0
-245 -108 282 0
-248 -109 277 0
-249 -109 277 0
-250 -109 277 0
-251 -109 277 0
-252 -109 277 0
-247 -110 278 0
-249 -110 278 0
-250 -110 278 0
-251 -110 278 0
-252 -110 278 0
-247 -111 279 0
-248 -111 279 0
-250 -111 279 0
-251 -111 279 0
-252 -111 279 0
-247 -112 280 0
-248 -112 280 0
-249 -112 280 0
-251 -112 280 0
-252 -112 280 0
-247 -113 281 0
-248 -113 281 0
-249 -113 281 0
-250 -113 281 0
-252 -113 281 0
-247 -114 282 0
-248 -114 282 0
-249 -114 282 0
-250 -114 282 0
-251 -114 282 0
-254 -115 277 0
-255 -115 277 0
-256 -115 277 0
-257 -115 277 0
-258 -115 277 0
-253 -116 278 0
-255 -116 278 0
-256 -116 278 0
-257 -116 278 0
-258 -116 278 0
-253 -117 279 0
-254 -117 279 0
-256 -117 279 0
-257 -117 279 0
-258 -117 279 0
-253 -118 280 0
-254 -118 280 0
-255 -118 280 0
-257 -118 280 0
-258 -118 280 0
-253 -119 281 0
-254 -119 281 0
-255 -119 281 0
-256 -119 281 0
-258 -119 281 0
-253 -120 282 0
-254 -120 282 0
-255 -120 282 0
-256 -120 282 0
-257 -120 282 0
-260 -121 277 0
-261 -121 277 0
-262 -121 277 0
-263 -121 277 0
-264 -121 277 0
-259 -122 278 0
-261 -122 278 0
-262 -122 278 0
-263 -122 278 0
-264 -122 278 0
-259 -123 279 0
-260 -123 279 0
-262 -123 279 0
-263 -123 279 0
-264 -123 279 0
-259 -124 280 0
-260 -124 280 0
-261 -124 280 0
-263 -124 280 0
-264 -124 280 0
-259 -125 281 0
-260 -125 281 0
-261 -125 281 0
-262 -125 281 0
-264 -125 281 0
-259 -126 282 0
-260 -126 282 0
-261 -126 282 0
-262 -126 282 0
-263 -126 282 0
-266 -127 277 0
-267 -127 277 0
-268 -127 277 0
-269 -127 277 0
-270 -127 277 0
-265 -128 278 0
-267 -128 278 0
-268 -128 278 0
-269 -128 278 0
-270 -128 278 0
-265 -129 279 0
-266 -129 279 0
-268 -129 279 0
-269 -129 279 0
-270 -129 279 0
-265 -130 280 0
-266 -130 280 0
-267 -130 280 0
-269 -130 280 0
-270 -130 280 0
-265 -131 281 0
-266 -131 281 0
-267 -131 281 0
-268 -131 281 0
-270 -131 281 0
-265 -132 282 0
-266 -132 282 0
-267 -132 282 0
-268 -132 282 0
-269 -132 282 0
-272 -133 277 0
-273 -133 277 0
-274 -133 277 0
-275 -133 277 0
-276 -133 277 0
-271 -134 278 0
-273 -134 278 0
-274 -134 278 0
-275 -134 278 0
-276 -134 278 0
-271 -135 279 0
-272 -135 279 0
-274 -135 279 0
-275 -135 279 0
-276 -135 279 0
-271 -136 280 0
-272 -136 280 0
-273 -136 280 0
-275 -136 280 0
-276 -136 280 0
-271 -137 281 0
-272 -137 281 0
-273 -137 281 0
-274 -137 281 0
-276 -137 281 0
-271 -138 282 0
-272 -138 282 0
-273 -138 282 0
-274 -138 282 0
-275 -138 282 0
-206 -139 271 0
-207 -139 271 0
-208 -139 271 0
-209 -139 271 0
-210 -139 271 0
-205 -140 272 0
-207 -140 272 0
-208 -140 272 0
-209 -140 272 0
-210 -140 272 0
-205 -141 273 0
-206 -141 273 0
-208 -141 273 0
-209 -141 273 0
-210 -141 273 0
-205 -142 274 0
-206 -142 274 0
-207 -142 274 0
-209 -142 274 0
-210 -142 274 0
-205 -143 275 0
-206 -143 275 0
-207 -143 275 0
-208 -143 275 0
-210 -143 275 0
-205 -144 276 0
-206 -144 276 0
-207 -144 276 0
-208 -144 276 0
-209 -144 276 0
-212 -145 271 0
-213 -145 271 0
-214 -145 271 0
-215 -145 271 0
-216 -145 271 0
-211 -146 272 0
-213 -146 272 0
-214 -146 272 0
-215 -146 272 0
-216 -146 272 0
-211 -147 273 0
-212 -147 273 0
-214 -147 273 0
-215 -147 273 0
-216 -147 273 0
-211 -148 274 0
-212 -148 274 0
-213 -148 274 0
-215 -148 274 0
-216 -148 274 0
-211 -149 275 0
-212 -149 275 0
-213 -149 275 0
-214 -149 275 0
-216 -149 275 0
-211 -150 276 0
-212 -150 276 0
-213 -150 276 0
-214 -150 276 0
-215 -150 276 0
-218 -151 271 0
-219 -151 271 0
-220 -151 271 0
-221 -151 271 0
-222 -151 271 0
-217 -152 272 0
-219 -152 272 0
-220 -152 272 0
-221 -152 272 0
-222 -152 272 0
-217 -153 273 0
-218 -153 273 0
-220 -153 273 0
-221 -153 273 0
-222 -153 273 0
-217 -154 274 0
-218 -154 274 0
-219 -154 274 0
-221 -154 274 0
-222 -154 274 0
-217 -155 275 0
-218 -155 275 0
-219 -155 275 0
-220 -155 275 0
-222 -155 275 0
-217 -156 276 0
-218 -156 276 0
-219 -156 276 0
-220 -156 276 0
-221 -156 276 0
-224 -157 271 0
-225 -157 271 0
-226 -157 271 0
-227 -157 271 0
-228 -157 271 0
-223 -158 272 0
-225 -158 272 0
-226 -158 272 0
-227 -158 272 0
-228 -158 272 0
-223 -159 273 0
-224 -159 273 0
-226 -159 273 0
-227 -159 273 0
-228 -159 273 0
-223 -160 274 0
-224 -160 274 0
-225 -160 274 0
-227 -160 274 0
-228 -160 274 0
-223 -161 275 0
-224 -161 275 0
-225 -161 275 0
-226 -161 275 0
-228 -161 275 0
-223 -162 276 0
-224 -162 276 0
-225 -162 276 0
-226 -162 276 0
-227 -162 276 0
-230 -163 271 0
-231 -163 271 0
-232 -163 271 0
-233 -163 271 0
-234 -163 271 0
-229 -164 272 0
-231 -164 272 0
-232 -164 272 0
-233 -164 272 0
-234 -164 272 0
-229 -165 273 0
-230 -165 273 0
-232 -165 273 0
-233 -165 273 0
-234 -165 273 0
-229 -166 274 0
-230 -166 274 0
-231 -166 274 0
-233 -166 274 0
-234 -166 274 0
-229 -167 275 0
-230 -167 275 0
-231 -167 275 0
-232 -167 275 0
-234 -167 275 0
-229 -168 276 0
-230 -168 276 0
-231 -168 276 0
-232 -168 276 0
-233 -168 276 0
-236 -169 271 0
-237 -169 271 0
-238 -169 271 0
-239 -169 271 0
-240 -169 271 0
-235 -170 272 0
-237 -170 272 0
-238 -170 272 0
-239 -170 272 0
-240 -170 272 0
-235 -171 273 0
-236 -171 273 0
-238 -171 273 0
-239 -171 273 0
-240 -171 273 0
-235 -172 274 0
-236 -172 274 0
-237 -172 274 0
-239 -172 274 0
-240 -172 274 0
-235 -173 275 0
-236 -173 275 0
-237 -173 275 0
-238 -173 275 0
-240 -173 275 0
-235 -174 276 0
-236 -174 276 0
-237 -174 276 0
-238 -174 276 0
-239 -174 276 0
-242 -175 271 0
-243 -175 271 0
-244 -175 271 0
-245 -175 271 0
-246 -175 271 0
-241 -176 272 0
-243 -176 272 0
-244 -176 272 0
-245 -176 272 0
-246 -176 272 0
-241 -177 273 0
-242 -177 273 0
-244 -177 273 0
-245 -177 273 0
-246 -177 273 0
-241 -178 274 0
-242 -178 274 0
-243 -178 274 0
-245 -178 274 0
-246 -178 274 0
-241 -179 275 0
-242 -179 275 0
-243 -179 275 0
-244 -179 275 0
-246 -179 275 0
-241 -180 276 0
-242 -180 276 0
-243 -180 276 0
-244 -180 276 0
-245 -180 276 0
-248 -181 271 0
-249 -181 271 0
-250 -181 271 0
-251 -181 271 0
-252 -181 271 0
-247 -182 272 0
-249 -182 272 0
-250 -182 272 0
-251 -182 272 0
-252 -182 272 0
-247 -183 273 0
-248 -183 273 0
-250 -183 273 0
-251 -183 273 0
-252 -183 273 0
-247 -184 274 0
-248 -184 274 0
-249 -184 274 0
-251 -184 274 0
-252 -184 274 0
-247 -185 275 0
-248 -185 275 0
-249 -185 275 0
-250 -185 275 0
-252 -185 275 0
-247 -186 276 0
-248 -186 276 0
-249 -186 276 0
-250 -186 276 0
-251 -186 276 0
-254 -187 271 0
-255 -187 271 0
-256 -187 271 0
-257 -187 271 0
-258 -187 271 0
-253 -188 272 0
-255 -188 272 0
-256 -188 272 0
-257 -188 272 0
-258 -188 272 0
-253 -189 273 0
-254 -189 273 0
-256 -189 273 0
-257 -189 273 0
-258 -189 273 0
-253 -190 274 0
-254 -190 274 0
-255 -190 274 0
-257 -190 274 0
-258 -190 274 0
-253 -191 275 0
-254 -191 275 0
-255 -191 275 0
-256 -191 275 0
-258 -191 275 0
-253 -192 276 0
-254 -192 276 0
-255 -192 276 0
-256 -192 276 0
-257 -192 276 0
-260 -193 271 0
-261 -193 271 0
-262 -193 271 0
-263 -193 271 0
-264 -193 271 0
-259 -194 272 0
-261 -194 272 0
-262 -194 272 0
-263 -194 272 0
-264 -194 272 0
-259 -195 273 0
-260 -195 273 0
-262 -195 273 0
-263 -195 273 0
-264 -195 273 0
-259 -196 274 0
-260 -196 274 0
-261 -196 274 0
-263 -196 274 0
-264 -196 274 0
-259 -197 275 0
-260 -197 275 0
-261 -197 275 0
-262 -197 275 0
-264 -197 275 0
-259 -198 276 0
-260 -198 276 0
-261 -198 276 0
-262 -198 276 0
-263 -198 276 0
-266 -199 271 0
-267 -199 271 0
-268 -199 271 0
-269 -199 271 0
-270 -199 271 0
-265 -200 272 0
-267 -200 272 0
-268 -200 272 0
-269 -200 272 0
-270 -200 272 0
-265 -201 273 0
-266 -201 273 0
-268 -201 273 0
-269 -201 273 0
-270 -201 273 0
-265 -202 274 0
-266 -202 274 0
-267 -202 274 0
-269 -202 274 0
-270 -202 274 0
-265 -203 275 0
-266 -203 275 0
-267 -203 275 0
-268 -203 275 0
-270 -203 275 0
-265 -204 276 0
-266 -204 276 0
-267 -204 276 0
-268 -204 276 0
-269 -204 276 0
-236 -205 265 0
-237 -205 265 0
-238 -205 265 0
-239 -205 265 0
-240 -205 265 0
-235 -206 266 0
-237 -206 266 0
-238 -206 266 0
-239 -206 266 0
-240 -206 266 0
-235 -207 267 0
-236 -207 267 0
-238 -207 267 0
-239 -207 267 0
-240 -207 267 0
-235 -208 268 0
-236 -208 268 0
-237 -208 268 0
-239 -208 268 0
-240 -208 268 0
-235 -209 269 0
-236 -209 269 0
-237 -209 269 0
-238 -209 269 0
-240 -209 269 0
-235 -210 270 0
-236 -210 270 0
-237 -210 270 0
-238 -210 270 0
-239 -210 270 0
-242 -211 265 0
-243 -211 265 0
-244 -211 265 0
-245 -211 265 0
-246 -211 265 0
-241 -212 266 0
-243 -212 266 0
-244 -212 266 0
-245 -212 266 0
-246 -212 266 0
-241 -213 267 0
-242 -213 267 0
-244 -213 267 0
-245 -213 267 0
-246 -213 267 0
-241 -214 268 0
-242 -214 268 0
-243 -214 268 0
-245 -214 268 0
-246 -214 268 0
-241 -215 269 0
-242 -215 269 0
-243 -215 269 0
-244 -215 269 0
-246 -215 269 0
-241 -216 270 0
-242 -216 270 0
-243 -216 270 0
-244 -216 270 0
-245 -216 270 0
-248 -217 265 0
-249 -217 265 0
-250 -217 265 0
-251 -217 265 0
-252 -217 265 0
-247 -218 266 0
-249 -218 266 0
-250 -218 266 0
-251 -218 266 0
-252 -218 266 0
-247 -219 267 0
-248 -219 267 0
-250 -219 267 0
-251 -219 267 0
-252 -219 267 0
-247 -220 268 0
-248 -220 268 0
-249 -220 268 0
-251 -220 268 0
-252 -220 268 0
-247 -221 269 0
-248 -221 269 0
-249 -221 269 0
-250 -221 269 0
-252 -221 269 0
-247 -222 270 0
-248 -222 270 0
-249 -222 270 0
-250 -222 270 0
-251 -222 270 0
-254 -223 265 0
-255 -223 265 0
-256 -223 265 0
-257 -223 265 0
-258 -223 265 0
-253 -224 266 0
-255 -224 266 0
-256 -224 266 0
-257 -224 266 0
-258 -224 266 0
-253 -225 267 0
-254 -225 267 0
-256 -225 267 0
-257 -225 267 0
-258 -225 267 0
-253 -226 268 0
-254 -226 268 0
-255 -226 268 0
-257 -226 268 0
-258 -226 268 0
-253 -227 269 0
-254 -227 269 0
-255 -227 269 0
-256 -227 269 0
-258 -227 269 0
-253 -228 270 0
-254 -228 270 0
-255 -228 270 0
-256 -228 270 0
-257 -228 270 0
-260 -229 265 0
-261 -229 265 0
-262 -229 265 0
-263 -229 265 0
-264 -229 265 0
-259 -230 266 0
-261 -230 266 0
-262 -230 266 0
-263 -230 266 0
-264 -230 266 0
-259 -231 267 0
-260 -231 267 0
-262 -231 267 0
-263 -231 267 0
-264 -231 267 0
-259 -232 268 0
-260 -232 268 0
-261 -232 268 0
-263 -232 268 0
-264 -232 268 0
-259 -233 269 0
-260 -233 269 0
-261 -233 269 0
-262 -233 269 0
-264 -233 269 0
-259 -234 270 0
-260 -234 270 0
-261 -234 270 0
-262 -234 270 0
-263 -234 270 0
-248 -235 259 0
-249 -235 259 0
-250 -235 259 0
-251 -235 259 0
-252 -235 259 0
-247 -236 260 0
-249 -236 260 0
-250 -236 260 0
-251 -236 260 0
-252 -236 260 0
-247 -237 261 0
-248 -237 261 0
-250 -237 261 0
-251 -237 261 0
-252 -237 261 0
-247 -238 262 0
-248 -238 262 0
-249 -238 262 0
-251 -238 262 0
-252 -238 262 0
-247 -239 263 0
-248 -239 263 0
-249 -239 263 0
-250 -239 263 0
-252 -239 263 0
-247 -240 264 0
-248 -240 264 0
-249 -240 264 0
-250 -240 264 0
-251 -240 264 0
-254 -241 259 0
-255 -241 259 0
-256 -241 259 0
-257 -241 259 0
-258 -241 259 0
-253 -242 260 0
-255 -242 260 0
-256 -242 260 0
-257 -242 260 0
-258 -242 260 0
-253 -243 261 0
-254 -243 261 0
-256 -243 261 0
-257 -243 261 0
-258 -243 261 0
-253 -244 262 0
-254 -244 262 0
-255 -244 262 0
-257 -244 262 0
-258 -244 262 0
-253 -245 263 0
-254 -245 263 0
-255 -245 263 0
-256 -245 263 0
-258 -245 263 0
-253 -246 264 0
-254 -246 264 0
-255 -246 264 0
-256 -246 264 0
-257 -246 264 0
